10	5
0	5	4	1	2	3	5
1	3	8	9	7
2	3	8	6	7
3	1	9
4	2	6	7
5	3	6	9	10
6	1	11
7	1	11
8	1	11
9	1	11
10	1	11
11	0
0	0	0	0	0	0	0
1	7	1	3	5	2	5
2	1	3	1	3	1	3
3	4	5	2	2	2	5
4	10	3	4	1	3	5
5	1	2	5	2	5	1
6	2	3	4	3	3	1
7	4	4	4	3	5	5
8	10	3	1	4	3	1
9	7	4	3	2	4	4
10	1	5	5	5	3	4
11	0	0	0	0	0	0
5	5	5	5	5
